# Solution for model GasLib-40
# Objective value = 3.8460354390895233e+01
loadshed[innode_1] 0
loadshed[innode_2] 0
loadshed[innode_3] 0
loadshed[innode_4] 0
loadshed[innode_5] 0
loadshed[innode_6] 0
loadshed[innode_7] 0
loadshed[innode_8] 0
loadshed[source_1] -2.2339950742249925e-01
loadshed[source_2] 1.4328538850534434e-01
loadshed[source_3] 3.2339507794575839e-01
loadshed[sink_1] 0
loadshed[sink_2] 0
loadshed[sink_3] 0
loadshed[sink_4] 0
loadshed[sink_5] 0
loadshed[sink_6] 0
loadshed[sink_7] 0
loadshed[sink_8] 0
loadshed[sink_9] 0
loadshed[sink_10] 0
loadshed[sink_11] 0
loadshed[sink_12] 1
loadshed[sink_13] 0
loadshed[sink_14] 0
loadshed[sink_15] 0
loadshed[sink_16] 0
loadshed[sink_17] 0
loadshed[sink_18] 0
loadshed[sink_19] 0
loadshed[sink_20] 0
loadshed[sink_21] 1
loadshed[sink_22] 0
loadshed[sink_23] 0
loadshed[sink_24] 3.5171593727766992e-01
loadshed[sink_25] 0
loadshed[sink_26] 0
loadshed[sink_27] 0
loadshed[sink_28] 0
loadshed[sink_29] 0
flow[source_1,sink_3] 1.9340756796161941e+02
flow[innode_1,sink_16] 1.6354166666666970e+01
flow[innode_6,sink_13] 7.51450659331325
flow[sink_13,sink_14] -8.8396600733534179e+00
flow[sink_14,sink_10] -2.5193826740020086e+01
flow[sink_25,sink_26] 1.3003787339358456e+02
flow[sink_26,sink_9] 3.2708333333334551e+01
flow[sink_9,sink_18] 1.6354166666667879e+01
flow[sink_26,sink_4] 8.0975373393583340e+01
flow[sink_4,sink_20] -1.5560927247757309e+01
flow[sink_18,sink_6] 0
flow[sink_25,innode_8] -1.6069923462828305e+02
flow[sink_6,sink_7] -4.9062500000000313e+01
flow[sink_6,sink_22] 3.2708333333333641e+01
flow[sink_7,sink_24] 1.0602145609104776e+01
flow[sink_22,sink_1] 1.6354166666666970e+01
flow[sink_24,sink_21] 0
flow[sink_21,sink_12] 0
flow[sink_7,sink_5] -7.6018812275771751e+01
flow[sink_5,sink_17] -9.2372978942438422e+01
flow[sink_17,sink_4] -8.0182133974673988e+01
flow[sink_17,sink_8] -2.8545011634431095e+01
flow[sink_3,sink_23] 16.3541666666697
flow[sink_8,sink_20] -4.4899178301097763e+01
flow[sink_25,sink_20] 7.6814272215521726e+01
flow[sink_25,sink_15] -70.0215842408032
flow[sink_15,sink_29] 0
flow[sink_29,sink_28] 1.6354166666667879e+01
flow[sink_29,sink_2] 1.0272991757413654e+02
flow[sink_2,sink_15] 8.6375750907469865e+01
flow[sink_29,innode_7] -1.3543825090747109e+02
flow[innode_4,sink_19] 9.0610493406687027e+01
flow[sink_19,innode_3] 3.6236774013345183e+01
flow[innode_4,innode_5] 1.6354166666679703e+01
flow[sink_27,innode_5] -1.6354166666679703e+01
flow[sink_27,sink_19] 0
flow[sink_10,sink_11] 3.2708333333333641e+01
flow[sink_10,innode_2] -3.8019552726675208e+01
flow[sink_10,innode_3] -3.6236774013345183e+01
flow[innode_6,sink_25] -7.51450659331325
flow[sink_11,innode_1] 1.6354166666666970e+01
flow[sink_19,innode_2] 3.8019552726675208e+01
flow[source_3,innode_4] 1.0696466007336673e+02
flow[source_2,innode_7] 1.3543825090747109e+02
flow[sink_3,innode_8] 1.6069923462828305e+02
pressure[innode_1] 7.5181196340138143e+01
pressure[innode_2] 7.7342388035242024e+01
pressure[innode_3] 7.7262145802558990e+01
pressure[innode_4] 81.01325
pressure[innode_5] 8.1002000741808772e+01
pressure[innode_6] 7.4166871913134173e+01
pressure[innode_7] 81.01325
pressure[innode_8] 8.0366762384673279e+01
pressure[source_1] 81.01325
pressure[source_2] 81.01325
pressure[source_3] 81.01325
pressure[sink_1] 1.0377327956318622e+01
pressure[sink_2] 7.4788542617066668e+01
pressure[sink_3] 8.0366762384673279e+01
pressure[sink_4] 5.4712962310149784e+01
pressure[sink_5] 44.7675463019095
pressure[sink_6] 1.2478405566705996e+01
pressure[sink_7] 1.3151916744406126e+01
pressure[sink_8] 5.2725742989135533e+01
pressure[sink_9] 6.3050702689147457e+01
pressure[sink_10] 7.5332897647741689e+01
pressure[sink_11] 7.5181196340138143e+01
pressure[sink_12] 1.01325
pressure[sink_13] 7.4125445694075950e+01
pressure[sink_14] 7.4141265018749763e+01
pressure[sink_15] 7.4506544827262644e+01
pressure[sink_16] 7.4159546505320463e+01
pressure[sink_17] 5.1648665542051795e+01
pressure[sink_18] 6.2458960195347757e+01
pressure[sink_19] 7.7342388035242024e+01
pressure[sink_20] 5.5854584287408052e+01
pressure[sink_21] 1.01325
pressure[sink_22] 1.1441097098673632e+01
pressure[sink_23] 8.0202044373013493e+01
pressure[sink_24] 1.01325
pressure[sink_25] 7.4166871913134173e+01
pressure[sink_26] 6.5008380857032066e+01
pressure[sink_27] 8.0866291377726043e+01
pressure[sink_28] 7.7095525093346325e+01
pressure[sink_29] 77.3908073669635
interdiction[source_1,sink_3] 0
interdiction[innode_1,sink_16] 0
interdiction[innode_6,sink_13] 0
interdiction[sink_13,sink_14] 0
interdiction[sink_14,sink_10] 0
interdiction[sink_25,sink_26] 0
interdiction[sink_26,sink_9] 0
interdiction[sink_9,sink_18] 0
interdiction[sink_26,sink_4] 0
interdiction[sink_4,sink_20] 0
interdiction[sink_18,sink_6] 1
interdiction[sink_25,innode_8] 0
interdiction[sink_6,sink_7] 0
interdiction[sink_6,sink_22] 0
interdiction[sink_7,sink_24] 0
interdiction[sink_22,sink_1] 0
interdiction[sink_24,sink_21] 0
interdiction[sink_21,sink_12] 0
interdiction[sink_7,sink_5] 0
interdiction[sink_5,sink_17] 0
interdiction[sink_17,sink_4] 0
interdiction[sink_17,sink_8] 0
interdiction[sink_3,sink_23] 0
interdiction[sink_8,sink_20] 0
interdiction[sink_25,sink_20] 0
interdiction[sink_25,sink_15] 0
interdiction[sink_15,sink_29] 1
interdiction[sink_29,sink_28] 0
interdiction[sink_29,sink_2] 0
interdiction[sink_2,sink_15] 0
interdiction[sink_29,innode_7] 0
interdiction[innode_4,sink_19] 0
interdiction[sink_19,innode_3] 0
interdiction[innode_4,innode_5] 0
interdiction[sink_27,innode_5] 0
interdiction[sink_27,sink_19] 1
interdiction[sink_10,sink_11] 0
interdiction[sink_10,innode_2] 0
interdiction[sink_10,innode_3] 0
interdiction[innode_6,sink_25] 0
interdiction[sink_11,innode_1] 0
interdiction[sink_19,innode_2] 0
interdiction[source_3,innode_4] 0
interdiction[source_2,innode_7] 0
interdiction[sink_3,innode_8] 0
WCcheckFlow[source_1,sink_3] 39
WCcheckFlow[innode_1,sink_16] 1
WCcheckFlow[innode_6,sink_13] 13
WCcheckFlow[sink_13,sink_14] 12
WCcheckFlow[sink_14,sink_10] 11
WCcheckFlow[sink_25,sink_26] 15
WCcheckFlow[sink_26,sink_9] 2
WCcheckFlow[sink_9,sink_18] 1
WCcheckFlow[sink_26,sink_4] 12
WCcheckFlow[sink_4,sink_20] 1
WCcheckFlow[sink_18,sink_6] 0
WCcheckFlow[sink_25,innode_8] -36
WCcheckFlow[sink_6,sink_7] -3
WCcheckFlow[sink_6,sink_22] 2
WCcheckFlow[sink_7,sink_24] 3
WCcheckFlow[sink_22,sink_1] 1
WCcheckFlow[sink_24,sink_21] 2
WCcheckFlow[sink_21,sink_12] 1
WCcheckFlow[sink_7,sink_5] -7
WCcheckFlow[sink_5,sink_17] -8
WCcheckFlow[sink_17,sink_4] -10
WCcheckFlow[sink_17,sink_8] 1
WCcheckFlow[sink_3,sink_23] 1
WCcheckFlow[sink_8,sink_20] 0
WCcheckFlow[sink_25,sink_20] 0
WCcheckFlow[sink_25,sink_15] 6
WCcheckFlow[sink_15,sink_29] 0
WCcheckFlow[sink_29,sink_28] 1
WCcheckFlow[sink_29,sink_2] -4
WCcheckFlow[sink_2,sink_15] -5
WCcheckFlow[sink_29,innode_7] 2
WCcheckFlow[innode_4,sink_19] -4
WCcheckFlow[sink_19,innode_3] -5
WCcheckFlow[innode_4,innode_5] 2
WCcheckFlow[sink_27,innode_5] -1
WCcheckFlow[sink_27,sink_19] 0
WCcheckFlow[sink_10,sink_11] 3
WCcheckFlow[sink_10,innode_2] 1
WCcheckFlow[sink_10,innode_3] 6
WCcheckFlow[innode_6,sink_25] -14
WCcheckFlow[sink_11,innode_1] 2
WCcheckFlow[sink_19,innode_2] 0
WCcheckFlow[source_3,innode_4] -1
WCcheckFlow[source_2,innode_7] -1
WCcheckFlow[sink_3,innode_8] 37
